50

99 41 308
96 48 365
94 3 327
94 26 349
90 13 292
90 16 331
90 41 318
90 2 317
87 3 345
86 30 395
85 14 295
85 37 290
84 7 252
84 9 256
84 23 380
84 1 393
84 39 347
83 33 252
81 6 391
81 0 351
79 19 385
71 20 279
71 28 298
70 5 325
65 9 232
65 5 226
65 17 276
63 3 216
62 22 277
59 25 385
51 15 283
51 20 353
50 18 211
49 17 204
49 4 316
49 1 254
47 4 380
45 18 227
44 17 295
43 20 235
41 19 234
35 0 360
35 15 392
33 5 347
31 16 336
27 9 324
23 0 175
23 12 111
22 9 219
22 3 231
